n = 11;
s = 8;
t = 4;
k = 5;
adj = array2d(1..11, 1..11, [false, false, false, false, true, false, true, false, false, false, true, false, false, false, false, false, true, true, false, false, false, false, false, false, false, false, false, true, false, false, true, false, false, false, false, false, false, false, false, false, false, true, false, false, true, false, false, false, false, false, false, false, false, true, false, false, true, true, false, false, false, false, false, false, false, false, true, true, false, false, false, false, false, false, false, false, true, false, false, false, false, false, false, false, false, false, false, true, false, false, true, true, false, false, false, false, false, false, false, false, false, false, false, true, false, false, false, false, false, false, true, false, false, false, false, false, true, true, false, false, false]);
cover = array2d(1..11, 1..5, [false, false, true, false, true, false, false, true, false, false, false, false, true, true, false, false, false, false, false, false, true, false, false, true, false, true, true, false, false, true, true, false, true, false, false, true, true, false, true, false, false, false, false, false, true, false, true, true, true, true, false, true, true, true, true]);
